p cnf 20 67
1 2 3 4 0
-3 -1 0
-3 -2 0
-3 -4 0
-1 -2 0
-1 -4 0
-2 -4 0
-3 -5 0
-6 -1 0
-2 -7 0
-4 -8 0
-3 -9 0
-10 -1 0
-2 -11 0
-4 -12 0
-3 -13 0
-14 -1 0
-2 -15 0
-4 -16 0
7 6 5 8 0
-5 -6 0
-5 -7 0
-5 -8 0
-6 -7 0
-6 -8 0
-7 -8 0
-5 -13 0
-6 -14 0
-7 -15 0
-8 -16 0
-17 -5 0
-18 -6 0
-7 -19 0
-8 -20 0
-5 -9 0
-6 -10 0
-7 -11 0
-8 -12 0
13 14 15 16 0
-14 -13 0
-13 -15 0
-13 -16 0
-14 -15 0
-14 -16 0
-15 -16 0
-17 -13 0
-18 -14 0
-15 -19 0
-16 -20 0
18 17 19 20 0
-17 -18 0
-17 -19 0
-17 -20 0
-18 -19 0
-18 -20 0
-19 -20 0
-17 -9 0
-18 -10 0
-19 -11 0
-20 -12 0
9 10 11 12 0
-9 -10 0
-9 -11 0
-9 -12 0
-10 -11 0
-10 -12 0
-11 -12 0
